rcpsp/heur_output_bi_constraints/Log=10/heurj90.txt
encoding rcpsp/j90.sm/j9017_3.sm nv: 362160 nc: 894033 enctime: 14.69
encoding rcpsp/j90.sm/j9017_3.sm nv: 72000 nc: 174678 enctime: 1.41
c File: j9017_3.smnaivebi10.wcnf
c optimal
c final solution cost: 87
c CPU time: 6.555615
s OPTIMUM FOUND

c File: j9017_3.smbi10.wcnf
c optimal
c final solution cost: 87
c CPU time: 0.547790
s OPTIMUM FOUND


rcpsp/heur_output_bi_constraints/Log=10/heurj90.txt
encoding rcpsp/j90.sm/j9017_4.sm nv: 352824 nc: 861228 enctime: 13.62
encoding rcpsp/j90.sm/j9017_4.sm nv: 73932 nc: 177714 enctime: 1.37
c File: j9017_4.smnaivebi10.wcnf
c optimal
c final solution cost: 92
c CPU time: 3.738367
s OPTIMUM FOUND

c File: j9017_4.smbi10.wcnf
c optimal
c final solution cost: 92
c CPU time: 0.272176
s OPTIMUM FOUND


rcpsp/heur_output_bi_constraints/Log=10/heurj90.txt
encoding rcpsp/j90.sm/j9017_5.sm nv: 315324 nc: 772045 enctime: 12.10
encoding rcpsp/j90.sm/j9017_5.sm nv: 80028 nc: 193437 enctime: 1.53
c File: j9017_5.smnaivebi10.wcnf
c optimal
c final solution cost: 98
c CPU time: 2.834607
s OPTIMUM FOUND

c File: j9017_5.smbi10.wcnf
c optimal
c final solution cost: 98
c CPU time: 0.609449
s OPTIMUM FOUND


rcpsp/heur_output_bi_constraints/Log=10/heurj90.txt
encoding rcpsp/j90.sm/j9017_6.sm nv: 364270 nc: 900427 enctime: 14.65
encoding rcpsp/j90.sm/j9017_6.sm nv: 78840 nc: 191935 enctime: 1.50
c File: j9017_6.smnaivebi10.wcnf
c optimal
c final solution cost: 91
c CPU time: 4.997444
s OPTIMUM FOUND

c File: j9017_6.smbi10.wcnf
c optimal
c final solution cost: 91
c CPU time: 0.525198
s OPTIMUM FOUND


rcpsp/heur_output_bi_constraints/Log=10/heurj90.txt
encoding rcpsp/j90.sm/j9017_7.sm nv: 367284 nc: 891097 enctime: 13.83
encoding rcpsp/j90.sm/j9017_7.sm nv: 70866 nc: 169113 enctime: 1.31
c File: j9017_7.smnaivebi10.wcnf
c optimal
c final solution cost: 78
c CPU time: 4.778146
s OPTIMUM FOUND

c File: j9017_7.smbi10.wcnf
c optimal
c final solution cost: 78
c CPU time: 0.521167
s OPTIMUM FOUND


rcpsp/heur_output_bi_constraints/Log=10/heurj90.txt
encoding rcpsp/j90.sm/j9017_8.sm nv: 338016 nc: 851742 enctime: 14.48
encoding rcpsp/j90.sm/j9017_8.sm nv: 94080 nc: 234279 enctime: 1.88
c File: j9017_8.smnaivebi10.wcnf
c optimal
c final solution cost: 113
c CPU time: 5.278726
s OPTIMUM FOUND

c File: j9017_8.smbi10.wcnf
c optimal
c final solution cost: 113
c CPU time: 1.089390
s OPTIMUM FOUND


rcpsp/heur_output_bi_constraints/Log=10/heurj90.txt
encoding rcpsp/j90.sm/j9017_9.sm nv: 293304 nc: 747993 enctime: 12.74
encoding rcpsp/j90.sm/j9017_9.sm nv: 63630 nc: 159406 enctime: 1.30
c File: j9017_9.smnaivebi10.wcnf
c optimal
c final solution cost: 94
c CPU time: 5.601202
s OPTIMUM FOUND

c File: j9017_9.smbi10.wcnf
c optimal
c final solution cost: 94
c CPU time: 1.154941
s OPTIMUM FOUND


rcpsp/heur_output_bi_constraints/Log=10/heurj90.txt
encoding rcpsp/j90.sm/j901_7.sm nv: 345744 nc: 851082 enctime: 13.28
encoding rcpsp/j90.sm/j901_7.sm nv: 72716 nc: 176074 enctime: 0.91
c File: j901_7.smnaivebi10.wcnf
c optimal
c final solution cost: 91
c CPU time: 5.176904
s OPTIMUM FOUND

c File: j901_7.smbi10.wcnf
c optimal
c final solution cost: 91
c CPU time: 0.828417
s OPTIMUM FOUND


rcpsp/heur_output_bi_constraints/Log=10/heurj90.txt
encoding rcpsp/j90.sm/j9018_10.sm nv: 446985 nc: 1054716 enctime: 15.50
encoding rcpsp/j90.sm/j9018_10.sm nv: 79464 nc: 184550 enctime: 1.40
c File: j9018_10.smnaivebi10.wcnf
c optimal
c final solution cost: 82
c CPU time: 4.440718
s OPTIMUM FOUND

c File: j9018_10.smbi10.wcnf
c optimal
c final solution cost: 82
c CPU time: 0.242941
s OPTIMUM FOUND


rcpsp/heur_output_bi_constraints/Log=10/heurj90.txt
encoding rcpsp/j90.sm/j9018_1.sm nv: 501270 nc: 1198356 enctime: 18.72
encoding rcpsp/j90.sm/j9018_1.sm nv: 100440 nc: 236795 enctime: 1.22
c File: j9018_1.smnaivebi10.wcnf
c optimal
c final solution cost: 92
c CPU time: 4.091509
s OPTIMUM FOUND

c File: j9018_1.smbi10.wcnf
c optimal
c final solution cost: 92
c CPU time: 0.352218
s OPTIMUM FOUND


rcpsp/heur_output_bi_constraints/Log=10/heurj90.txt
encoding rcpsp/j90.sm/j9018_2.sm nv: 445005 nc: 1048701 enctime: 15.46
encoding rcpsp/j90.sm/j9018_2.sm nv: 82708 nc: 191923 enctime: 1.46
c File: j9018_2.smnaivebi10.wcnf
c optimal
c final solution cost: 82
c CPU time: 3.474563
s OPTIMUM FOUND

c File: j9018_2.smbi10.wcnf
c optimal
c final solution cost: 82
c CPU time: 0.243125
s OPTIMUM FOUND


rcpsp/heur_output_bi_constraints/Log=10/heurj90.txt
encoding rcpsp/j90.sm/j9018_3.sm nv: 455088 nc: 1074589 enctime: 15.79
encoding rcpsp/j90.sm/j9018_3.sm nv: 83904 nc: 195062 enctime: 1.52
c File: j9018_3.smnaivebi10.wcnf
c optimal
c final solution cost: 79
c CPU time: 3.405266
s OPTIMUM FOUND

c File: j9018_3.smbi10.wcnf
c optimal
c final solution cost: 79
c CPU time: 0.272093
s OPTIMUM FOUND


rcpsp/heur_output_bi_constraints/Log=10/heurj90.txt
encoding rcpsp/j90.sm/j9018_4.sm nv: 538965 nc: 1266014 enctime: 18.51
encoding rcpsp/j90.sm/j9018_4.sm nv: 102515 nc: 237454 enctime: 1.78
c File: j9018_4.smnaivebi10.wcnf
c optimal
c final solution cost: 98
c CPU time: 4.459912
s OPTIMUM FOUND

c File: j9018_4.smbi10.wcnf
c optimal
c final solution cost: 98
c CPU time: 0.314734
s OPTIMUM FOUND


rcpsp/heur_output_bi_constraints/Log=10/heurj90.txt
encoding rcpsp/j90.sm/j9018_5.sm nv: 429936 nc: 1026357 enctime: 15.98
encoding rcpsp/j90.sm/j9018_5.sm nv: 83104 nc: 195269 enctime: 1.00
c File: j9018_5.smnaivebi10.wcnf
c optimal
c final solution cost: 90
c CPU time: 3.595835
s OPTIMUM FOUND

c File: j9018_5.smbi10.wcnf
c optimal
c final solution cost: 90
c CPU time: 0.277044
s OPTIMUM FOUND


rcpsp/heur_output_bi_constraints/Log=10/heurj90.txt
encoding rcpsp/j90.sm/j9018_6.sm nv: 471225 nc: 1116651 enctime: 16.55
encoding rcpsp/j90.sm/j9018_6.sm nv: 87840 nc: 204907 enctime: 1.55
c File: j9018_6.smnaivebi10.wcnf
c optimal
c final solution cost: 82
c CPU time: 35.681396
s OPTIMUM FOUND

c File: j9018_6.smbi10.wcnf
c optimal
c final solution cost: 82
c CPU time: 0.297839
s OPTIMUM FOUND


rcpsp/heur_output_bi_constraints/Log=10/heurj90.txt
encoding rcpsp/j90.sm/j9018_7.sm nv: 370648 nc: 857486 enctime: 11.83
encoding rcpsp/j90.sm/j9018_7.sm nv: 72760 nc: 166010 enctime: 1.22
c File: j9018_7.smnaivebi10.wcnf
c optimal
c final solution cost: 73
c CPU time: 2.679179
s OPTIMUM FOUND

c File: j9018_7.smbi10.wcnf
c optimal
c final solution cost: 73
c CPU time: 0.212610
s OPTIMUM FOUND


rcpsp/heur_output_bi_constraints/Log=10/heurj90.txt
encoding rcpsp/j90.sm/j9018_8.sm nv: 542270 nc: 1257423 enctime: 17.70
encoding rcpsp/j90.sm/j9018_8.sm nv: 101280 nc: 231651 enctime: 1.72
c File: j9018_8.smnaivebi10.wcnf
c optimal
c final solution cost: 92
c CPU time: 3.616303
s OPTIMUM FOUND

c File: j9018_8.smbi10.wcnf
c optimal
c final solution cost: 92
c CPU time: 0.259864
s OPTIMUM FOUND


rcpsp/heur_output_bi_constraints/Log=10/heurj90.txt
encoding rcpsp/j90.sm/j9018_9.sm nv: 493525 nc: 1121301 enctime: 14.90
encoding rcpsp/j90.sm/j9018_9.sm nv: 77925 nc: 174101 enctime: 1.28
c File: j9018_9.smnaivebi10.wcnf
c optimal
c final solution cost: 74
c CPU time: 3.637624
s OPTIMUM FOUND

c File: j9018_9.smbi10.wcnf
c optimal
c final solution cost: 74
c CPU time: 0.210826
s OPTIMUM FOUND


rcpsp/heur_output_bi_constraints/Log=10/heurj90.txt
encoding rcpsp/j90.sm/j901_8.sm nv: 380712 nc: 958494 enctime: 14.95
encoding rcpsp/j90.sm/j901_8.sm nv: 81432 nc: 201694 enctime: 1.53
c File: j901_8.smnaivebi10.wcnf
c optimal
c final solution cost: 90
c CPU time: 9.313088
s OPTIMUM FOUND

c File: j901_8.smbi10.wcnf
c optimal
c final solution cost: 90
c CPU time: 1.425704
s OPTIMUM FOUND


rcpsp/heur_output_bi_constraints/Log=10/heurj90.txt
encoding rcpsp/j90.sm/j9019_10.sm nv: 589920 nc: 1312535 enctime: 16.54
encoding rcpsp/j90.sm/j9019_10.sm nv: 109381 nc: 240413 enctime: 1.70
c File: j9019_10.smnaivebi10.wcnf
c optimal
c final solution cost: 85
c CPU time: 3.283588
s OPTIMUM FOUND

c File: j9019_10.smbi10.wcnf
c optimal
c final solution cost: 85
c CPU time: 0.259037
s OPTIMUM FOUND


rcpsp/heur_output_bi_constraints/Log=10/heurj90.txt
encoding rcpsp/j90.sm/j9019_1.sm nv: 529659 nc: 1219539 enctime: 16.98
encoding rcpsp/j90.sm/j9019_1.sm nv: 105300 nc: 239443 enctime: 1.73
c File: j9019_1.smnaivebi10.wcnf
c optimal
c final solution cost: 98
c CPU time: 5.166927
s OPTIMUM FOUND

c File: j9019_1.smbi10.wcnf
c optimal
c final solution cost: 98
c CPU time: 0.332371
s OPTIMUM FOUND


rcpsp/heur_output_bi_constraints/Log=10/heurj90.txt
encoding rcpsp/j90.sm/j9019_2.sm nv: 509220 nc: 1140120 enctime: 14.83
encoding rcpsp/j90.sm/j9019_2.sm nv: 92988 nc: 205384 enctime: 1.02
c File: j9019_2.smnaivebi10.wcnf
c optimal
c final solution cost: 83
c CPU time: 3.277213
s OPTIMUM FOUND

c File: j9019_2.smbi10.wcnf
c optimal
c final solution cost: 83
c CPU time: 0.205516
s OPTIMUM FOUND


rcpsp/heur_output_bi_constraints/Log=10/heurj90.txt
encoding rcpsp/j90.sm/j9019_3.sm nv: 566724 nc: 1282660 enctime: 16.77
encoding rcpsp/j90.sm/j9019_3.sm nv: 89902 nc: 200383 enctime: 1.47
c File: j9019_3.smnaivebi10.wcnf
c optimal
c final solution cost: 75
c CPU time: 4.063856
s OPTIMUM FOUND

c File: j9019_3.smbi10.wcnf
c optimal
c final solution cost: 75
c CPU time: 0.287915
s OPTIMUM FOUND


rcpsp/heur_output_bi_constraints/Log=10/heurj90.txt
encoding rcpsp/j90.sm/j9019_4.sm nv: 616512 nc: 1403491 enctime: 18.89
encoding rcpsp/j90.sm/j9019_4.sm nv: 97280 nc: 218139 enctime: 1.63
c File: j9019_4.smnaivebi10.wcnf
c optimal
c final solution cost: 66
c CPU time: 4.814836
s OPTIMUM FOUND

c File: j9019_4.smbi10.wcnf
c optimal
c final solution cost: 66
c CPU time: 0.266546
s OPTIMUM FOUND


rcpsp/heur_output_bi_constraints/Log=10/heurj90.txt
encoding rcpsp/j90.sm/j9019_5.sm nv: 445718 nc: 972671 enctime: 11.60
encoding rcpsp/j90.sm/j9019_5.sm nv: 78526 nc: 169231 enctime: 1.18
c File: j9019_5.smnaivebi10.wcnf
c optimal
c final solution cost: 66
c CPU time: 2.376878
s OPTIMUM FOUND

c File: j9019_5.smbi10.wcnf
c optimal
c final solution cost: 66
c CPU time: 0.193486
s OPTIMUM FOUND


rcpsp/heur_output_bi_constraints/Log=10/heurj90.txt
encoding rcpsp/j90.sm/j9019_6.sm nv: 513080 nc: 1195442 enctime: 16.93
encoding rcpsp/j90.sm/j9019_6.sm nv: 140390 nc: 324233 enctime: 2.35
c File: j9019_6.smnaivebi10.wcnf
c optimal
c final solution cost: 136
c CPU time: 3.349495
s OPTIMUM FOUND

c File: j9019_6.smbi10.wcnf
c optimal
c final solution cost: 136
c CPU time: 0.412345
s OPTIMUM FOUND


rcpsp/heur_output_bi_constraints/Log=10/heurj90.txt
encoding rcpsp/j90.sm/j9019_7.sm nv: 483345 nc: 1098705 enctime: 14.90
encoding rcpsp/j90.sm/j9019_7.sm nv: 73485 nc: 164145 enctime: 0.79
c File: j9019_7.smnaivebi10.wcnf
c optimal
c final solution cost: 66
c CPU time: 3.159627
s OPTIMUM FOUND

c File: j9019_7.smbi10.wcnf
c optimal
c final solution cost: 66
c CPU time: 0.223231
s OPTIMUM FOUND


rcpsp/heur_output_bi_constraints/Log=10/heurj90.txt
encoding rcpsp/j90.sm/j9019_8.sm nv: 521220 nc: 1207386 enctime: 17.08
encoding rcpsp/j90.sm/j9019_8.sm nv: 80738 nc: 183761 enctime: 0.88
c File: j9019_8.smnaivebi10.wcnf
c optimal
c final solution cost: 78
c CPU time: 4.128826
s OPTIMUM FOUND

c File: j9019_8.smbi10.wcnf
c optimal
c final solution cost: 78
c CPU time: 0.202959
s OPTIMUM FOUND


rcpsp/heur_output_bi_constraints/Log=10/heurj90.txt
encoding rcpsp/j90.sm/j9019_9.sm nv: 580482 nc: 1357856 enctime: 19.53
encoding rcpsp/j90.sm/j9019_9.sm nv: 118881 nc: 274753 enctime: 1.42
c File: j9019_9.smnaivebi10.wcnf
c optimal
c final solution cost: 110
c CPU time: 4.268728
s OPTIMUM FOUND

c File: j9019_9.smbi10.wcnf
c optimal
c final solution cost: 110
c CPU time: 0.292618
s OPTIMUM FOUND


rcpsp/heur_output_bi_constraints/Log=10/heurj90.txt
encoding rcpsp/j90.sm/j901_9.sm nv: 360714 nc: 853129 enctime: 12.15
encoding rcpsp/j90.sm/j901_9.sm nv: 70773 nc: 164662 enctime: 1.21
c File: j901_9.smnaivebi10.wcnf
c optimal
c final solution cost: 68
c CPU time: 5.859518
s OPTIMUM FOUND

c File: j901_9.smbi10.wcnf
c optimal
c final solution cost: 68
c CPU time: 0.957922
s OPTIMUM FOUND


rcpsp/heur_output_bi_constraints/Log=10/heurj90.txt
encoding rcpsp/j90.sm/j9020_10.sm nv: 494400 nc: 1155419 enctime: 16.73
encoding rcpsp/j90.sm/j9020_10.sm nv: 96960 nc: 223505 enctime: 1.64
c File: j9020_10.smnaivebi10.wcnf
c optimal
c final solution cost: 89
c CPU time: 3.551770
s OPTIMUM FOUND

c File: j9020_10.smbi10.wcnf
c optimal
c final solution cost: 89
c CPU time: 0.272670
s OPTIMUM FOUND


rcpsp/heur_output_bi_constraints/Log=10/heurj90.txt
encoding rcpsp/j90.sm/j9020_1.sm nv: 664224 nc: 1513472 enctime: 20.72
encoding rcpsp/j90.sm/j9020_1.sm nv: 108669 nc: 244022 enctime: 1.81
c File: j9020_1.smnaivebi10.wcnf
c optimal
c final solution cost: 85
c CPU time: 4.152425
s OPTIMUM FOUND

c File: j9020_1.smbi10.wcnf
c optimal
c final solution cost: 85
c CPU time: 0.255076
s OPTIMUM FOUND


rcpsp/heur_output_bi_constraints/Log=10/heurj90.txt
encoding rcpsp/j90.sm/j9020_2.sm nv: 572142 nc: 1294307 enctime: 17.90
encoding rcpsp/j90.sm/j9020_2.sm nv: 89076 nc: 198314 enctime: 0.95
c File: j9020_2.smnaivebi10.wcnf
c optimal
c final solution cost: 76
c CPU time: 3.568509
s OPTIMUM FOUND

c File: j9020_2.smbi10.wcnf
c optimal
c final solution cost: 76
c CPU time: 0.219768
s OPTIMUM FOUND


rcpsp/heur_output_bi_constraints/Log=10/heurj90.txt
encoding rcpsp/j90.sm/j9020_3.sm nv: 693384 nc: 1549330 enctime: 20.13
encoding rcpsp/j90.sm/j9020_3.sm nv: 116232 nc: 256354 enctime: 1.27
c File: j9020_3.smnaivebi10.wcnf
c optimal
c final solution cost: 86
c CPU time: 3.926271
s OPTIMUM FOUND

c File: j9020_3.smbi10.wcnf
c optimal
c final solution cost: 86
c CPU time: 0.243933
s OPTIMUM FOUND


rcpsp/heur_output_bi_constraints/Log=10/heurj90.txt
encoding rcpsp/j90.sm/j9020_4.sm nv: 613500 nc: 1379820 enctime: 18.16
encoding rcpsp/j90.sm/j9020_4.sm nv: 106749 nc: 237049 enctime: 1.70
c File: j9020_4.smnaivebi10.wcnf
c optimal
c final solution cost: 86
c CPU time: 3.495701
s OPTIMUM FOUND

c File: j9020_4.smbi10.wcnf
c optimal
c final solution cost: 86
c CPU time: 0.229600
s OPTIMUM FOUND


rcpsp/heur_output_bi_constraints/Log=10/heurj90.txt
encoding rcpsp/j90.sm/j9020_5.sm nv: 606900 nc: 1347736 enctime: 17.08
encoding rcpsp/j90.sm/j9020_5.sm nv: 114750 nc: 251882 enctime: 1.28
c File: j9020_5.smnaivebi10.wcnf
c optimal
c final solution cost: 88
c CPU time: 3.252518
s OPTIMUM FOUND

c File: j9020_5.smbi10.wcnf
c optimal
c final solution cost: 88
c CPU time: 0.267964
s OPTIMUM FOUND


rcpsp/heur_output_bi_constraints/Log=10/heurj90.txt
encoding rcpsp/j90.sm/j9020_6.sm nv: 635290 nc: 1419637 enctime: 18.57
encoding rcpsp/j90.sm/j9020_6.sm nv: 104414 nc: 230019 enctime: 1.69
c File: j9020_6.smnaivebi10.wcnf
c optimal
c final solution cost: 78
c CPU time: 3.800875
s OPTIMUM FOUND

c File: j9020_6.smbi10.wcnf
c optimal
c final solution cost: 78
c CPU time: 0.252365
s OPTIMUM FOUND


rcpsp/heur_output_bi_constraints/Log=10/heurj90.txt
encoding rcpsp/j90.sm/j9020_7.sm nv: 672438 nc: 1466410 enctime: 17.76
encoding rcpsp/j90.sm/j9020_7.sm nv: 116034 nc: 250122 enctime: 1.75
c File: j9020_7.smnaivebi10.wcnf
c optimal
c final solution cost: 82
c CPU time: 3.404333
s OPTIMUM FOUND

c File: j9020_7.smbi10.wcnf
c optimal
c final solution cost: 82
c CPU time: 0.238493
s OPTIMUM FOUND


rcpsp/heur_output_bi_constraints/Log=10/heurj90.txt
encoding rcpsp/j90.sm/j9020_8.sm nv: 652540 nc: 1493139 enctime: 20.78
encoding rcpsp/j90.sm/j9020_8.sm nv: 101480 nc: 228503 enctime: 1.12
c File: j9020_8.smnaivebi10.wcnf
c optimal
c final solution cost: 85
c CPU time: 4.248112
s OPTIMUM FOUND

c File: j9020_8.smbi10.wcnf
c optimal
c final solution cost: 85
c CPU time: 0.232116
s OPTIMUM FOUND


rcpsp/heur_output_bi_constraints/Log=10/heurj90.txt
encoding rcpsp/j90.sm/j9020_9.sm nv: 524025 nc: 1139030 enctime: 13.73
encoding rcpsp/j90.sm/j9020_9.sm nv: 96174 nc: 206641 enctime: 1.48
c File: j9020_9.smnaivebi10.wcnf
c optimal
c final solution cost: 76
c CPU time: 2.682936
s OPTIMUM FOUND

c File: j9020_9.smbi10.wcnf
c optimal
c final solution cost: 76
c CPU time: 0.220608
s OPTIMUM FOUND


